c FILE /home/rafael/Documents/HappySet/MIHS/inputs/happygen/output/graph_scale_free_k4_p0.5_v100_20241127_083833.txt
c SOURCE This is a scale-free graph formed for the happy graph colouring problem.
c DESCRIPTION It was generated using the problem generator of Rhyd Lewis
c
c GRAPH STATS
c Seed                             = -1494108333
c Number of Nodes                  = 100
c Number of colours k              = 4
c Number of pre-assignments        = 50
c Number of links per new node     = 5
c Density                          = 0.0979798
c 
c The degrees of nodes 1 to 100, respectively, are as follows 
c [40, 33, 33, 30, 30, 27, 24, 23, 23, 21, 19, 17, 17, 16, 15, 15, 13, 12, 12, 12, 11, 11, 11, 10, 10, 10, 
c  10, 10, 10, 10, 10, 9, 9, 9, 8, 8, 8, 8, 8, 8, 8, 8, 8, 8, 8, 7, 7, 7, 7, 7, 7, 
c  7, 7, 7, 7, 6, 6, 6, 6, 6, 6, 6, 6, 6, 6, 6, 6, 6, 6, 6, 5, 5, 5, 5, 5, 5, 
c  5, 5, 5, 5, 5, 5, 5, 5, 5, 5, 5, 5, 5, 5, 5, 5, 5, 5, 5, 5, 5, 5, 5, 5] 
c  
p edge 100 485 4
e 1 2
e 1 4
e 1 5
e 1 6
e 1 8
e 1 9
e 1 10
e 1 11
e 1 12
e 1 13
e 1 20
e 1 23
e 1 24
e 1 25
e 1 26
e 1 27
e 1 28
e 1 32
e 1 34
e 1 37
e 1 39
e 1 41
e 1 42
e 1 47
e 1 50
e 1 51
e 1 58
e 1 61
e 1 69
e 1 70
e 1 72
e 1 74
e 1 77
e 1 84
e 1 87
e 1 89
e 1 90
e 1 93
e 1 96
e 1 98
e 2 3
e 2 4
e 2 5
e 2 6
e 2 7
e 2 8
e 2 9
e 2 10
e 2 12
e 2 13
e 2 18
e 2 19
e 2 22
e 2 25
e 2 26
e 2 31
e 2 35
e 2 36
e 2 45
e 2 46
e 2 48
e 2 49
e 2 54
e 2 55
e 2 59
e 2 74
e 2 80
e 2 84
e 2 87
e 2 88
e 2 92
e 2 94
e 3 4
e 3 5
e 3 8
e 3 10
e 3 14
e 3 15
e 3 16
e 3 20
e 3 22
e 3 23
e 3 24
e 3 31
e 3 33
e 3 34
e 3 43
e 3 48
e 3 50
e 3 52
e 3 58
e 3 65
e 3 74
e 3 78
e 3 80
e 3 81
e 3 82
e 3 83
e 3 85
e 3 88
e 3 94
e 3 97
e 3 98
e 3 99
e 4 5
e 4 6
e 4 8
e 4 9
e 4 10
e 4 11
e 4 12
e 4 13
e 4 16
e 4 24
e 4 27
e 4 32
e 4 39
e 4 48
e 4 50
e 4 56
e 4 57
e 4 62
e 4 63
e 4 64
e 4 67
e 4 73
e 4 74
e 4 77
e 4 82
e 4 85
e 4 100
e 5 8
e 5 9
e 5 12
e 5 19
e 5 22
e 5 25
e 5 28
e 5 29
e 5 31
e 5 32
e 5 33
e 5 36
e 5 37
e 5 38
e 5 43
e 5 52
e 5 57
e 5 60
e 5 61
e 5 62
e 5 68
e 5 70
e 5 72
e 5 75
e 5 88
e 5 100
e 6 7
e 6 8
e 6 10
e 6 11
e 6 12
e 6 14
e 6 16
e 6 18
e 6 19
e 6 27
e 6 32
e 6 37
e 6 40
e 6 44
e 6 53
e 6 63
e 6 73
e 6 76
e 6 77
e 6 79
e 6 92
e 6 95
e 6 97
e 6 100
e 7 8
e 7 9
e 7 11
e 7 12
e 7 14
e 7 16
e 7 19
e 7 23
e 7 30
e 7 33
e 7 35
e 7 36
e 7 38
e 7 40
e 7 42
e 7 46
e 7 50
e 7 64
e 7 71
e 7 75
e 7 92
e 7 97
e 8 9
e 8 10
e 8 15
e 8 17
e 8 21
e 8 23
e 8 30
e 8 35
e 8 39
e 8 47
e 8 52
e 8 57
e 8 82
e 8 89
e 8 95
e 8 100
e 9 10
e 9 14
e 9 21
e 9 23
e 9 26
e 9 36
e 9 37
e 9 39
e 9 41
e 9 44
e 9 54
e 9 55
e 9 56
e 9 67
e 9 72
e 9 90
e 9 98
e 10 14
e 10 17
e 10 18
e 10 21
e 10 24
e 10 29
e 10 35
e 10 39
e 10 44
e 10 49
e 10 52
e 10 66
e 10 91
e 10 94
e 11 13
e 11 14
e 11 15
e 11 19
e 11 21
e 11 27
e 11 29
e 11 36
e 11 37
e 11 40
e 11 47
e 11 48
e 11 69
e 11 76
e 11 90
e 12 22
e 12 25
e 12 28
e 12 31
e 12 32
e 12 34
e 12 35
e 12 53
e 12 61
e 12 82
e 12 99
e 13 14
e 13 21
e 13 29
e 13 40
e 13 41
e 13 42
e 13 45
e 13 49
e 13 51
e 13 65
e 13 81
e 13 87
e 13 92
e 14 17
e 14 18
e 14 24
e 14 38
e 14 49
e 14 60
e 14 65
e 14 81
e 14 90
e 15 17
e 15 21
e 15 34
e 15 56
e 15 57
e 15 59
e 15 60
e 15 71
e 15 73
e 15 78
e 15 83
e 15 93
e 16 18
e 16 41
e 16 46
e 16 56
e 16 60
e 16 62
e 16 65
e 16 75
e 16 77
e 16 89
e 16 96
e 17 18
e 17 24
e 17 25
e 17 26
e 17 27
e 17 32
e 17 34
e 17 42
e 17 47
e 18 56
e 18 62
e 18 70
e 18 71
e 18 72
e 18 80
e 19 20
e 19 46
e 19 54
e 19 66
e 19 71
e 19 72
e 19 88
e 20 33
e 20 35
e 20 39
e 20 49
e 20 65
e 20 73
e 20 80
e 20 85
e 20 99
e 21 40
e 21 52
e 21 57
e 21 81
e 21 87
e 22 24
e 22 44
e 22 46
e 22 51
e 22 64
e 22 69
e 22 86
e 23 26
e 23 38
e 23 45
e 23 66
e 23 67
e 23 86
e 24 31
e 24 50
e 24 79
e 25 30
e 25 51
e 25 77
e 25 86
e 25 97
e 26 47
e 26 48
e 26 68
e 26 78
e 26 79
e 27 41
e 27 60
e 27 62
e 27 64
e 27 67
e 28 38
e 28 43
e 28 46
e 28 51
e 28 79
e 28 83
e 28 92
e 29 30
e 29 33
e 29 75
e 29 76
e 29 91
e 29 99
e 30 38
e 30 53
e 30 54
e 30 55
e 30 66
e 30 94
e 31 53
e 31 63
e 31 85
e 31 91
e 31 95
e 32 38
e 32 63
e 32 98
e 33 41
e 33 45
e 33 58
e 33 93
e 34 44
e 34 55
e 34 61
e 34 84
e 35 73
e 35 83
e 36 43
e 36 74
e 36 83
e 37 45
e 37 66
e 37 96
e 38 76
e 39 42
e 39 76
e 40 59
e 40 67
e 40 71
e 41 43
e 41 75
e 42 54
e 42 59
e 42 84
e 43 58
e 43 89
e 43 100
e 44 63
e 44 95
e 44 96
e 45 64
e 45 68
e 45 80
e 46 61
e 47 85
e 47 99
e 48 70
e 48 78
e 49 58
e 49 95
e 50 78
e 50 91
e 51 89
e 51 91
e 52 53
e 52 68
e 53 55
e 53 69
e 54 69
e 54 70
e 55 86
e 55 87
e 56 94
e 57 88
e 58 59
e 59 68
e 60 82
e 61 79
e 62 97
e 63 84
e 64 81
e 65 86
e 66 90
e 67 93
e 68 96
e 69 98
e 70 93
n 2 1
n 5 1
n 11 3
n 24 1
n 26 1
n 28 1
n 35 1
n 38 1
n 39 1
n 40 3
n 41 1
n 43 1
n 44 3
n 45 1
n 46 1
n 50 1
n 51 1
n 53 4
n 54 1
n 56 2
n 57 1
n 60 1
n 61 1
n 65 4
n 66 2
n 67 3
n 70 1
n 71 3
n 72 1
n 73 1
n 74 1
n 75 1
n 77 4
n 79 1
n 81 4
n 82 1
n 83 1
n 84 1
n 86 4
n 87 1
n 88 1
n 89 1
n 91 1
n 92 1
n 95 3
n 96 3
n 97 3
n 98 2
n 99 3
n 100 1
